NAME : XML100_2246_19
DIMENSION : 101
NB_CLUSTERS : 7
CLUSTERING_ALG : DBSCAN
CLUSTERING_PARAMS : eps(47), minSamples(3)
CLUSTERS
1 0
2 2 8 9 13 14 19 28 30 33 36 47 55 65 68 69 71 78 82 88 89 92
3 3 5 6 10 12 15 16 25 27 31 32 34 38 40 44 46 48 58 60 62 63 73 76 77 79 80 86 91 96 100
4 4 11 18 23 29 37 39 41 43 49 51 52 54 56 57 61 64 66 67 74 81 83 84 85 87 90 93 95 97
5 17 42 53
6 1 7 20 22 24 26 45 70 75 94 98 99
7 21 35 50 59 72
EOF